7 23 
34 22 
22 59 
98 82 
29 8 
83 30 
15 26 
40 92 
50 6 
8 75 
27 65 
52 39 
59 64 
40 0 
9 17 
85 68 
92 71 
90 14 
30 88 
48 59 
49 84 
89 64 
10 81 
8 12 
40 17 
39 19 
82 43 
58 41 
7 99 
93 17 
68 30 
85 60 
53 28 
26 83 
68 74 
94 17 
58 35 
81 20 
16 90 
85 56 
7 24 
75 41 
68 86 
34 27 
85 79 
96 53 
9 82 
65 14 
62 91 
49 30 
